305 287
75 111 183 69 98 85 102 93 62 143 155 183 160 107 156 173 102 181 195 114 75 151 177 100 93 184 79 185 159 127 189 89 96 167 104 184 169 139 74 190 174 63 76 154 122 155 61 155 76 131 105 89 104 169 186 195 114 170 195 145
90 119 105 96 117 145 163 77 167 64 128 162 135 173 133 97 59 94 150 181 67 85 72 87 110 129 134 155 118 118 143 117 157 114 72 127 143 68 182 89 112 127 115 148 131 106 138 162 76 124 80 155 99 69 81 73 183 156 78 106
201 287 383 257 179 205 273 271 386 140 409 250 316 208 487 270 194 291 397 226 178 267 320 284 267 390 447 287 140 293 211 296 316 461 199 231 322 542 359 276 349 203 491 267 194 221 286 190 386 245 480 213 549 202 373 186 200 392 269 243